(set-info :source |printed by MathSAT|)
(declare-fun |sum::n__param__@2| () (_ BitVec 32))
(declare-fun |sum::m__param__@2| () (_ BitVec 32))
(declare-fun |sum::n@2| () (_ BitVec 32))
(declare-fun |sum::m@2| () (_ BitVec 32))
(declare-fun |sum::n__param__@3| () (_ BitVec 32))
(declare-fun |sum::m__param__@3| () (_ BitVec 32))
(declare-fun |sum::__retval__@2| () (_ BitVec 32))
(declare-fun |sum::n@3| () (_ BitVec 32))
(declare-fun |sum::m@3| () (_ BitVec 32))
(declare-fun |sum::n__param__@4| () (_ BitVec 32))
(declare-fun |sum::m__param__@4| () (_ BitVec 32))
(declare-fun |sum::n@4| () (_ BitVec 32))
(declare-fun |sum::m@4| () (_ BitVec 32))
(declare-fun |sum::n__param__@5| () (_ BitVec 32))
(declare-fun |sum::m__param__@5| () (_ BitVec 32))
(declare-fun |sum::n@5| () (_ BitVec 32))
(declare-fun |sum::m@5| () (_ BitVec 32))
(declare-fun |sum::n__param__@6| () (_ BitVec 32))
(declare-fun |sum::m__param__@6| () (_ BitVec 32))
(declare-fun |sum::n@6| () (_ BitVec 32))
(declare-fun |sum::m@6| () (_ BitVec 32))
(declare-fun |sum::n__param__@7| () (_ BitVec 32))
(declare-fun |sum::m__param__@7| () (_ BitVec 32))
(declare-fun |sum::n@7| () (_ BitVec 32))
(declare-fun |sum::m@7| () (_ BitVec 32))
(declare-fun |sum::n__param__@8| () (_ BitVec 32))
(declare-fun |sum::m__param__@8| () (_ BitVec 32))
(declare-fun |sum::n@8| () (_ BitVec 32))
(declare-fun |sum::m@8| () (_ BitVec 32))
(declare-fun |sum::n__param__@9| () (_ BitVec 32))
(declare-fun |sum::m__param__@9| () (_ BitVec 32))
(declare-fun |sum::n@9| () (_ BitVec 32))
(declare-fun |sum::m@9| () (_ BitVec 32))
(declare-fun |sum::n__param__@10| () (_ BitVec 32))
(declare-fun |sum::m__param__@10| () (_ BitVec 32))
(declare-fun |sum::n@10| () (_ BitVec 32))
(declare-fun |sum::m@10| () (_ BitVec 32))
(declare-fun |sum::n__param__@11| () (_ BitVec 32))
(declare-fun |sum::m__param__@11| () (_ BitVec 32))
(declare-fun |sum::n@11| () (_ BitVec 32))
(declare-fun |sum::m@11| () (_ BitVec 32))
(declare-fun |sum::n__param__@12| () (_ BitVec 32))
(declare-fun |sum::m__param__@12| () (_ BitVec 32))
(declare-fun |sum::n@12| () (_ BitVec 32))
(declare-fun |sum::m@12| () (_ BitVec 32))
(declare-fun |sum::n__param__@13| () (_ BitVec 32))
(declare-fun |sum::m__param__@13| () (_ BitVec 32))
(declare-fun |sum::n@13| () (_ BitVec 32))
(declare-fun |sum::m@13| () (_ BitVec 32))
(declare-fun |sum::n__param__@14| () (_ BitVec 32))
(declare-fun |sum::m__param__@14| () (_ BitVec 32))
(declare-fun |sum::n@14| () (_ BitVec 32))
(declare-fun |sum::m@14| () (_ BitVec 32))
(declare-fun |sum::n__param__@15| () (_ BitVec 32))
(declare-fun |sum::m__param__@15| () (_ BitVec 32))
(declare-fun |sum::n@15| () (_ BitVec 32))
(declare-fun |sum::m@15| () (_ BitVec 32))
(declare-fun |sum::n__param__@16| () (_ BitVec 32))
(declare-fun |sum::m__param__@16| () (_ BitVec 32))
(declare-fun |sum::n@16| () (_ BitVec 32))
(declare-fun |sum::m@16| () (_ BitVec 32))
(declare-fun |sum::n__param__@17| () (_ BitVec 32))
(declare-fun |sum::m__param__@17| () (_ BitVec 32))
(declare-fun |sum::n@17| () (_ BitVec 32))
(declare-fun |sum::m@17| () (_ BitVec 32))
(declare-fun |sum::n__param__@18| () (_ BitVec 32))
(declare-fun |sum::m__param__@18| () (_ BitVec 32))
(declare-fun |sum::n@18| () (_ BitVec 32))
(declare-fun |sum::m@18| () (_ BitVec 32))
(declare-fun |sum::n__param__@19| () (_ BitVec 32))
(declare-fun |sum::m__param__@19| () (_ BitVec 32))
(declare-fun |sum::n@19| () (_ BitVec 32))
(declare-fun |sum::m@19| () (_ BitVec 32))
(declare-fun |sum::n__param__@20| () (_ BitVec 32))
(declare-fun |sum::m__param__@20| () (_ BitVec 32))
(declare-fun |sum::n@20| () (_ BitVec 32))
(declare-fun |sum::m@20| () (_ BitVec 32))
(declare-fun |sum::n__param__@21| () (_ BitVec 32))
(declare-fun |sum::m__param__@21| () (_ BitVec 32))
(declare-fun |sum::n@21| () (_ BitVec 32))
(declare-fun |sum::m@21| () (_ BitVec 32))
(declare-fun |sum::n__param__@22| () (_ BitVec 32))
(declare-fun |sum::m__param__@22| () (_ BitVec 32))
(declare-fun |sum::n@22| () (_ BitVec 32))
(declare-fun |sum::m@22| () (_ BitVec 32))
(declare-fun |sum::n__param__@23| () (_ BitVec 32))
(declare-fun |sum::m__param__@23| () (_ BitVec 32))
(declare-fun |sum::n@23| () (_ BitVec 32))
(declare-fun |sum::m@23| () (_ BitVec 32))
(declare-fun |sum::n__param__@24| () (_ BitVec 32))
(declare-fun |sum::m__param__@24| () (_ BitVec 32))
(declare-fun |sum::n@24| () (_ BitVec 32))
(declare-fun |sum::m@24| () (_ BitVec 32))
(declare-fun |sum::n__param__@25| () (_ BitVec 32))
(declare-fun |sum::m__param__@25| () (_ BitVec 32))
(declare-fun |sum::n@25| () (_ BitVec 32))
(declare-fun |sum::m@25| () (_ BitVec 32))
(declare-fun |sum::n__param__@26| () (_ BitVec 32))
(declare-fun |sum::m__param__@26| () (_ BitVec 32))
(declare-fun |sum::n@26| () (_ BitVec 32))
(declare-fun |sum::m@26| () (_ BitVec 32))
(declare-fun |sum::n__param__@27| () (_ BitVec 32))
(declare-fun |sum::m__param__@27| () (_ BitVec 32))
(declare-fun |sum::n@27| () (_ BitVec 32))
(declare-fun |sum::m@27| () (_ BitVec 32))
(declare-fun |sum::iVar1@28| () (_ BitVec 32))
(declare-fun |sum::__retval__@3| () (_ BitVec 32))
(declare-fun |sum::__retval__@4| () (_ BitVec 32))
(declare-fun |sum::__retval__@5| () (_ BitVec 32))
(declare-fun |sum::__retval__@6| () (_ BitVec 32))
(declare-fun |sum::__retval__@7| () (_ BitVec 32))
(declare-fun |sum::__retval__@8| () (_ BitVec 32))
(declare-fun |sum::__retval__@9| () (_ BitVec 32))
(declare-fun |sum::__retval__@10| () (_ BitVec 32))
(declare-fun |sum::__retval__@11| () (_ BitVec 32))
(declare-fun |sum::__retval__@12| () (_ BitVec 32))
(declare-fun |sum::__retval__@13| () (_ BitVec 32))
(declare-fun |sum::__retval__@14| () (_ BitVec 32))
(declare-fun |sum::__retval__@15| () (_ BitVec 32))
(declare-fun |sum::__retval__@16| () (_ BitVec 32))
(declare-fun |sum::__retval__@17| () (_ BitVec 32))
(declare-fun |sum::__retval__@18| () (_ BitVec 32))
(declare-fun |sum::__retval__@19| () (_ BitVec 32))
(declare-fun |sum::__retval__@20| () (_ BitVec 32))
(declare-fun |sum::__retval__@21| () (_ BitVec 32))
(declare-fun |sum::__retval__@22| () (_ BitVec 32))
(declare-fun |sum::__retval__@23| () (_ BitVec 32))
(declare-fun |sum::__retval__@24| () (_ BitVec 32))
(declare-fun |sum::__retval__@25| () (_ BitVec 32))
(declare-fun |sum::__retval__@26| () (_ BitVec 32))
(declare-fun |sum::__retval__@27| () (_ BitVec 32))
(declare-fun |sum::iVar1@30| () (_ BitVec 32))
(declare-fun |sum::iVar1@32| () (_ BitVec 32))
(declare-fun |sum::iVar1@34| () (_ BitVec 32))
(declare-fun |sum::iVar1@36| () (_ BitVec 32))
(declare-fun |sum::iVar1@38| () (_ BitVec 32))
(declare-fun |sum::iVar1@40| () (_ BitVec 32))
(declare-fun |sum::iVar1@42| () (_ BitVec 32))
(declare-fun |sum::iVar1@44| () (_ BitVec 32))
(declare-fun |sum::iVar1@46| () (_ BitVec 32))
(declare-fun |sum::iVar1@48| () (_ BitVec 32))
(declare-fun |sum::iVar1@50| () (_ BitVec 32))
(declare-fun |sum::iVar1@52| () (_ BitVec 32))
(declare-fun |sum::iVar1@54| () (_ BitVec 32))
(declare-fun |sum::iVar1@56| () (_ BitVec 32))
(declare-fun |sum::iVar1@58| () (_ BitVec 32))
(declare-fun |sum::iVar1@60| () (_ BitVec 32))
(declare-fun |sum::iVar1@62| () (_ BitVec 32))
(declare-fun |sum::iVar1@64| () (_ BitVec 32))
(declare-fun |sum::iVar1@66| () (_ BitVec 32))
(declare-fun |sum::iVar1@68| () (_ BitVec 32))
(declare-fun |sum::iVar1@70| () (_ BitVec 32))
(declare-fun |sum::iVar1@72| () (_ BitVec 32))
(declare-fun |sum::iVar1@74| () (_ BitVec 32))
(declare-fun |sum::iVar1@76| () (_ BitVec 32))
(declare-fun |sum::iVar1@78| () (_ BitVec 32))
(declare-fun |main::iVar1@29| () (_ BitVec 32))
(assert (let ((.def_19 (= |sum::m__param__@2| |sum::m@2|)))(let ((.def_17 (= |sum::n__param__@2| |sum::n@2|)))(let ((.def_20 (and .def_17 .def_19)))(let ((.def_14 (= |sum::m__param__@2| (_ bv0 32))))(let ((.def_12 (= |sum::n__param__@2| (_ bv25 32))))(let ((.def_15 (and .def_12 .def_14)))(let ((.def_743 (and .def_15 .def_20)))(let ((.def_22 (bvslt |sum::n@2| (_ bv1 32))))(let ((.def_25 (not .def_22)))(let ((.def_744 (and .def_25 .def_743)))(let ((.def_34 (bvadd (_ bv1 32) |sum::m@2|)))(let ((.def_36 (= .def_34 |sum::m__param__@3|)))(let ((.def_30 (bvadd (_ bv4294967295 32) |sum::n@2|)))(let ((.def_32 (= .def_30 |sum::n__param__@3|)))(let ((.def_37 (and .def_32 .def_36)))(let ((.def_745 (and .def_37 .def_744)))(let ((.def_76 (= |sum::m__param__@3| |sum::m@3|)))(let ((.def_74 (= |sum::n__param__@3| |sum::n@3|)))(let ((.def_77 (and .def_74 .def_76)))(let ((.def_746 (and .def_77 .def_745)))(let ((.def_78 (bvslt |sum::n@3| (_ bv1 32))))(let ((.def_80 (not .def_78)))(let ((.def_747 (and .def_80 .def_746)))(let ((.def_88 (bvadd (_ bv1 32) |sum::m@3|)))(let ((.def_90 (= .def_88 |sum::m__param__@4|)))(let ((.def_84 (bvadd (_ bv4294967295 32) |sum::n@3|)))(let ((.def_86 (= .def_84 |sum::n__param__@4|)))(let ((.def_91 (and .def_86 .def_90)))(let ((.def_748 (and .def_91 .def_747)))(let ((.def_95 (= |sum::m__param__@4| |sum::m@4|)))(let ((.def_93 (= |sum::n__param__@4| |sum::n@4|)))(let ((.def_96 (and .def_93 .def_95)))(let ((.def_749 (and .def_96 .def_748)))(let ((.def_97 (bvslt |sum::n@4| (_ bv1 32))))(let ((.def_99 (not .def_97)))(let ((.def_750 (and .def_99 .def_749)))(let ((.def_107 (bvadd (_ bv1 32) |sum::m@4|)))(let ((.def_109 (= .def_107 |sum::m__param__@5|)))(let ((.def_103 (bvadd (_ bv4294967295 32) |sum::n@4|)))(let ((.def_105 (= .def_103 |sum::n__param__@5|)))(let ((.def_110 (and .def_105 .def_109)))(let ((.def_751 (and .def_110 .def_750)))(let ((.def_114 (= |sum::m__param__@5| |sum::m@5|)))(let ((.def_112 (= |sum::n__param__@5| |sum::n@5|)))(let ((.def_115 (and .def_112 .def_114)))(let ((.def_752 (and .def_115 .def_751)))(let ((.def_116 (bvslt |sum::n@5| (_ bv1 32))))(let ((.def_118 (not .def_116)))(let ((.def_753 (and .def_118 .def_752)))(let ((.def_126 (bvadd (_ bv1 32) |sum::m@5|)))(let ((.def_128 (= .def_126 |sum::m__param__@6|)))(let ((.def_122 (bvadd (_ bv4294967295 32) |sum::n@5|)))(let ((.def_124 (= .def_122 |sum::n__param__@6|)))(let ((.def_129 (and .def_124 .def_128)))(let ((.def_754 (and .def_129 .def_753)))(let ((.def_133 (= |sum::m__param__@6| |sum::m@6|)))(let ((.def_131 (= |sum::n__param__@6| |sum::n@6|)))(let ((.def_134 (and .def_131 .def_133)))(let ((.def_755 (and .def_134 .def_754)))(let ((.def_135 (bvslt |sum::n@6| (_ bv1 32))))(let ((.def_137 (not .def_135)))(let ((.def_756 (and .def_137 .def_755)))(let ((.def_145 (bvadd (_ bv1 32) |sum::m@6|)))(let ((.def_147 (= .def_145 |sum::m__param__@7|)))(let ((.def_141 (bvadd (_ bv4294967295 32) |sum::n@6|)))(let ((.def_143 (= .def_141 |sum::n__param__@7|)))(let ((.def_148 (and .def_143 .def_147)))(let ((.def_757 (and .def_148 .def_756)))(let ((.def_152 (= |sum::m__param__@7| |sum::m@7|)))(let ((.def_150 (= |sum::n__param__@7| |sum::n@7|)))(let ((.def_153 (and .def_150 .def_152)))(let ((.def_758 (and .def_153 .def_757)))(let ((.def_154 (bvslt |sum::n@7| (_ bv1 32))))(let ((.def_156 (not .def_154)))(let ((.def_759 (and .def_156 .def_758)))(let ((.def_164 (bvadd (_ bv1 32) |sum::m@7|)))(let ((.def_166 (= .def_164 |sum::m__param__@8|)))(let ((.def_160 (bvadd (_ bv4294967295 32) |sum::n@7|)))(let ((.def_162 (= .def_160 |sum::n__param__@8|)))(let ((.def_167 (and .def_162 .def_166)))(let ((.def_760 (and .def_167 .def_759)))(let ((.def_171 (= |sum::m__param__@8| |sum::m@8|)))(let ((.def_169 (= |sum::n__param__@8| |sum::n@8|)))(let ((.def_172 (and .def_169 .def_171)))(let ((.def_761 (and .def_172 .def_760)))(let ((.def_173 (bvslt |sum::n@8| (_ bv1 32))))(let ((.def_175 (not .def_173)))(let ((.def_762 (and .def_175 .def_761)))(let ((.def_183 (bvadd (_ bv1 32) |sum::m@8|)))(let ((.def_185 (= .def_183 |sum::m__param__@9|)))(let ((.def_179 (bvadd (_ bv4294967295 32) |sum::n@8|)))(let ((.def_181 (= .def_179 |sum::n__param__@9|)))(let ((.def_186 (and .def_181 .def_185)))(let ((.def_763 (and .def_186 .def_762)))(let ((.def_190 (= |sum::m__param__@9| |sum::m@9|)))(let ((.def_188 (= |sum::n__param__@9| |sum::n@9|)))(let ((.def_191 (and .def_188 .def_190)))(let ((.def_764 (and .def_191 .def_763)))(let ((.def_192 (bvslt |sum::n@9| (_ bv1 32))))(let ((.def_194 (not .def_192)))(let ((.def_765 (and .def_194 .def_764)))(let ((.def_202 (bvadd (_ bv1 32) |sum::m@9|)))(let ((.def_204 (= .def_202 |sum::m__param__@10|)))(let ((.def_198 (bvadd (_ bv4294967295 32) |sum::n@9|)))(let ((.def_200 (= .def_198 |sum::n__param__@10|)))(let ((.def_205 (and .def_200 .def_204)))(let ((.def_766 (and .def_205 .def_765)))(let ((.def_209 (= |sum::m__param__@10| |sum::m@10|)))(let ((.def_207 (= |sum::n__param__@10| |sum::n@10|)))(let ((.def_210 (and .def_207 .def_209)))(let ((.def_767 (and .def_210 .def_766)))(let ((.def_211 (bvslt |sum::n@10| (_ bv1 32))))(let ((.def_213 (not .def_211)))(let ((.def_768 (and .def_213 .def_767)))(let ((.def_221 (bvadd (_ bv1 32) |sum::m@10|)))(let ((.def_223 (= .def_221 |sum::m__param__@11|)))(let ((.def_217 (bvadd (_ bv4294967295 32) |sum::n@10|)))(let ((.def_219 (= .def_217 |sum::n__param__@11|)))(let ((.def_224 (and .def_219 .def_223)))(let ((.def_769 (and .def_224 .def_768)))(let ((.def_228 (= |sum::m__param__@11| |sum::m@11|)))(let ((.def_226 (= |sum::n__param__@11| |sum::n@11|)))(let ((.def_229 (and .def_226 .def_228)))(let ((.def_770 (and .def_229 .def_769)))(let ((.def_230 (bvslt |sum::n@11| (_ bv1 32))))(let ((.def_232 (not .def_230)))(let ((.def_771 (and .def_232 .def_770)))(let ((.def_240 (bvadd (_ bv1 32) |sum::m@11|)))(let ((.def_242 (= .def_240 |sum::m__param__@12|)))(let ((.def_236 (bvadd (_ bv4294967295 32) |sum::n@11|)))(let ((.def_238 (= .def_236 |sum::n__param__@12|)))(let ((.def_243 (and .def_238 .def_242)))(let ((.def_772 (and .def_243 .def_771)))(let ((.def_247 (= |sum::m__param__@12| |sum::m@12|)))(let ((.def_245 (= |sum::n__param__@12| |sum::n@12|)))(let ((.def_248 (and .def_245 .def_247)))(let ((.def_773 (and .def_248 .def_772)))(let ((.def_249 (bvslt |sum::n@12| (_ bv1 32))))(let ((.def_251 (not .def_249)))(let ((.def_774 (and .def_251 .def_773)))(let ((.def_259 (bvadd (_ bv1 32) |sum::m@12|)))(let ((.def_261 (= .def_259 |sum::m__param__@13|)))(let ((.def_255 (bvadd (_ bv4294967295 32) |sum::n@12|)))(let ((.def_257 (= .def_255 |sum::n__param__@13|)))(let ((.def_262 (and .def_257 .def_261)))(let ((.def_775 (and .def_262 .def_774)))(let ((.def_266 (= |sum::m__param__@13| |sum::m@13|)))(let ((.def_264 (= |sum::n__param__@13| |sum::n@13|)))(let ((.def_267 (and .def_264 .def_266)))(let ((.def_776 (and .def_267 .def_775)))(let ((.def_268 (bvslt |sum::n@13| (_ bv1 32))))(let ((.def_270 (not .def_268)))(let ((.def_777 (and .def_270 .def_776)))(let ((.def_278 (bvadd (_ bv1 32) |sum::m@13|)))(let ((.def_280 (= .def_278 |sum::m__param__@14|)))(let ((.def_274 (bvadd (_ bv4294967295 32) |sum::n@13|)))(let ((.def_276 (= .def_274 |sum::n__param__@14|)))(let ((.def_281 (and .def_276 .def_280)))(let ((.def_778 (and .def_281 .def_777)))(let ((.def_285 (= |sum::m__param__@14| |sum::m@14|)))(let ((.def_283 (= |sum::n__param__@14| |sum::n@14|)))(let ((.def_286 (and .def_283 .def_285)))(let ((.def_779 (and .def_286 .def_778)))(let ((.def_287 (bvslt |sum::n@14| (_ bv1 32))))(let ((.def_289 (not .def_287)))(let ((.def_780 (and .def_289 .def_779)))(let ((.def_297 (bvadd (_ bv1 32) |sum::m@14|)))(let ((.def_299 (= .def_297 |sum::m__param__@15|)))(let ((.def_293 (bvadd (_ bv4294967295 32) |sum::n@14|)))(let ((.def_295 (= .def_293 |sum::n__param__@15|)))(let ((.def_300 (and .def_295 .def_299)))(let ((.def_781 (and .def_300 .def_780)))(let ((.def_304 (= |sum::m__param__@15| |sum::m@15|)))(let ((.def_302 (= |sum::n__param__@15| |sum::n@15|)))(let ((.def_305 (and .def_302 .def_304)))(let ((.def_782 (and .def_305 .def_781)))(let ((.def_306 (bvslt |sum::n@15| (_ bv1 32))))(let ((.def_308 (not .def_306)))(let ((.def_783 (and .def_308 .def_782)))(let ((.def_316 (bvadd (_ bv1 32) |sum::m@15|)))(let ((.def_318 (= .def_316 |sum::m__param__@16|)))(let ((.def_312 (bvadd (_ bv4294967295 32) |sum::n@15|)))(let ((.def_314 (= .def_312 |sum::n__param__@16|)))(let ((.def_319 (and .def_314 .def_318)))(let ((.def_784 (and .def_319 .def_783)))(let ((.def_323 (= |sum::m__param__@16| |sum::m@16|)))(let ((.def_321 (= |sum::n__param__@16| |sum::n@16|)))(let ((.def_324 (and .def_321 .def_323)))(let ((.def_785 (and .def_324 .def_784)))(let ((.def_325 (bvslt |sum::n@16| (_ bv1 32))))(let ((.def_327 (not .def_325)))(let ((.def_786 (and .def_327 .def_785)))(let ((.def_335 (bvadd (_ bv1 32) |sum::m@16|)))(let ((.def_337 (= .def_335 |sum::m__param__@17|)))(let ((.def_331 (bvadd (_ bv4294967295 32) |sum::n@16|)))(let ((.def_333 (= .def_331 |sum::n__param__@17|)))(let ((.def_338 (and .def_333 .def_337)))(let ((.def_787 (and .def_338 .def_786)))(let ((.def_342 (= |sum::m__param__@17| |sum::m@17|)))(let ((.def_340 (= |sum::n__param__@17| |sum::n@17|)))(let ((.def_343 (and .def_340 .def_342)))(let ((.def_788 (and .def_343 .def_787)))(let ((.def_344 (bvslt |sum::n@17| (_ bv1 32))))(let ((.def_346 (not .def_344)))(let ((.def_789 (and .def_346 .def_788)))(let ((.def_354 (bvadd (_ bv1 32) |sum::m@17|)))(let ((.def_356 (= .def_354 |sum::m__param__@18|)))(let ((.def_350 (bvadd (_ bv4294967295 32) |sum::n@17|)))(let ((.def_352 (= .def_350 |sum::n__param__@18|)))(let ((.def_357 (and .def_352 .def_356)))(let ((.def_790 (and .def_357 .def_789)))(let ((.def_361 (= |sum::m__param__@18| |sum::m@18|)))(let ((.def_359 (= |sum::n__param__@18| |sum::n@18|)))(let ((.def_362 (and .def_359 .def_361)))(let ((.def_791 (and .def_362 .def_790)))(let ((.def_363 (bvslt |sum::n@18| (_ bv1 32))))(let ((.def_365 (not .def_363)))(let ((.def_792 (and .def_365 .def_791)))(let ((.def_373 (bvadd (_ bv1 32) |sum::m@18|)))(let ((.def_375 (= .def_373 |sum::m__param__@19|)))(let ((.def_369 (bvadd (_ bv4294967295 32) |sum::n@18|)))(let ((.def_371 (= .def_369 |sum::n__param__@19|)))(let ((.def_376 (and .def_371 .def_375)))(let ((.def_793 (and .def_376 .def_792)))(let ((.def_380 (= |sum::m__param__@19| |sum::m@19|)))(let ((.def_378 (= |sum::n__param__@19| |sum::n@19|)))(let ((.def_381 (and .def_378 .def_380)))(let ((.def_794 (and .def_381 .def_793)))(let ((.def_382 (bvslt |sum::n@19| (_ bv1 32))))(let ((.def_384 (not .def_382)))(let ((.def_795 (and .def_384 .def_794)))(let ((.def_392 (bvadd (_ bv1 32) |sum::m@19|)))(let ((.def_394 (= .def_392 |sum::m__param__@20|)))(let ((.def_388 (bvadd (_ bv4294967295 32) |sum::n@19|)))(let ((.def_390 (= .def_388 |sum::n__param__@20|)))(let ((.def_395 (and .def_390 .def_394)))(let ((.def_796 (and .def_395 .def_795)))(let ((.def_399 (= |sum::m__param__@20| |sum::m@20|)))(let ((.def_397 (= |sum::n__param__@20| |sum::n@20|)))(let ((.def_400 (and .def_397 .def_399)))(let ((.def_797 (and .def_400 .def_796)))(let ((.def_401 (bvslt |sum::n@20| (_ bv1 32))))(let ((.def_403 (not .def_401)))(let ((.def_798 (and .def_403 .def_797)))(let ((.def_411 (bvadd (_ bv1 32) |sum::m@20|)))(let ((.def_413 (= .def_411 |sum::m__param__@21|)))(let ((.def_407 (bvadd (_ bv4294967295 32) |sum::n@20|)))(let ((.def_409 (= .def_407 |sum::n__param__@21|)))(let ((.def_414 (and .def_409 .def_413)))(let ((.def_799 (and .def_414 .def_798)))(let ((.def_418 (= |sum::m__param__@21| |sum::m@21|)))(let ((.def_416 (= |sum::n__param__@21| |sum::n@21|)))(let ((.def_419 (and .def_416 .def_418)))(let ((.def_800 (and .def_419 .def_799)))(let ((.def_420 (bvslt |sum::n@21| (_ bv1 32))))(let ((.def_422 (not .def_420)))(let ((.def_801 (and .def_422 .def_800)))(let ((.def_430 (bvadd (_ bv1 32) |sum::m@21|)))(let ((.def_432 (= .def_430 |sum::m__param__@22|)))(let ((.def_426 (bvadd (_ bv4294967295 32) |sum::n@21|)))(let ((.def_428 (= .def_426 |sum::n__param__@22|)))(let ((.def_433 (and .def_428 .def_432)))(let ((.def_802 (and .def_433 .def_801)))(let ((.def_437 (= |sum::m__param__@22| |sum::m@22|)))(let ((.def_435 (= |sum::n__param__@22| |sum::n@22|)))(let ((.def_438 (and .def_435 .def_437)))(let ((.def_803 (and .def_438 .def_802)))(let ((.def_439 (bvslt |sum::n@22| (_ bv1 32))))(let ((.def_441 (not .def_439)))(let ((.def_804 (and .def_441 .def_803)))(let ((.def_449 (bvadd (_ bv1 32) |sum::m@22|)))(let ((.def_451 (= .def_449 |sum::m__param__@23|)))(let ((.def_445 (bvadd (_ bv4294967295 32) |sum::n@22|)))(let ((.def_447 (= .def_445 |sum::n__param__@23|)))(let ((.def_452 (and .def_447 .def_451)))(let ((.def_805 (and .def_452 .def_804)))(let ((.def_456 (= |sum::m__param__@23| |sum::m@23|)))(let ((.def_454 (= |sum::n__param__@23| |sum::n@23|)))(let ((.def_457 (and .def_454 .def_456)))(let ((.def_806 (and .def_457 .def_805)))(let ((.def_458 (bvslt |sum::n@23| (_ bv1 32))))(let ((.def_460 (not .def_458)))(let ((.def_807 (and .def_460 .def_806)))(let ((.def_468 (bvadd (_ bv1 32) |sum::m@23|)))(let ((.def_470 (= .def_468 |sum::m__param__@24|)))(let ((.def_464 (bvadd (_ bv4294967295 32) |sum::n@23|)))(let ((.def_466 (= .def_464 |sum::n__param__@24|)))(let ((.def_471 (and .def_466 .def_470)))(let ((.def_808 (and .def_471 .def_807)))(let ((.def_475 (= |sum::m__param__@24| |sum::m@24|)))(let ((.def_473 (= |sum::n__param__@24| |sum::n@24|)))(let ((.def_476 (and .def_473 .def_475)))(let ((.def_809 (and .def_476 .def_808)))(let ((.def_477 (bvslt |sum::n@24| (_ bv1 32))))(let ((.def_479 (not .def_477)))(let ((.def_810 (and .def_479 .def_809)))(let ((.def_487 (bvadd (_ bv1 32) |sum::m@24|)))(let ((.def_489 (= .def_487 |sum::m__param__@25|)))(let ((.def_483 (bvadd (_ bv4294967295 32) |sum::n@24|)))(let ((.def_485 (= .def_483 |sum::n__param__@25|)))(let ((.def_490 (and .def_485 .def_489)))(let ((.def_811 (and .def_490 .def_810)))(let ((.def_494 (= |sum::m__param__@25| |sum::m@25|)))(let ((.def_492 (= |sum::n__param__@25| |sum::n@25|)))(let ((.def_495 (and .def_492 .def_494)))(let ((.def_812 (and .def_495 .def_811)))(let ((.def_496 (bvslt |sum::n@25| (_ bv1 32))))(let ((.def_498 (not .def_496)))(let ((.def_813 (and .def_498 .def_812)))(let ((.def_506 (bvadd (_ bv1 32) |sum::m@25|)))(let ((.def_508 (= .def_506 |sum::m__param__@26|)))(let ((.def_502 (bvadd (_ bv4294967295 32) |sum::n@25|)))(let ((.def_504 (= .def_502 |sum::n__param__@26|)))(let ((.def_509 (and .def_504 .def_508)))(let ((.def_814 (and .def_509 .def_813)))(let ((.def_513 (= |sum::m__param__@26| |sum::m@26|)))(let ((.def_511 (= |sum::n__param__@26| |sum::n@26|)))(let ((.def_514 (and .def_511 .def_513)))(let ((.def_815 (and .def_514 .def_814)))(let ((.def_515 (bvslt |sum::n@26| (_ bv1 32))))(let ((.def_517 (not .def_515)))(let ((.def_816 (and .def_517 .def_815)))(let ((.def_525 (bvadd (_ bv1 32) |sum::m@26|)))(let ((.def_527 (= .def_525 |sum::m__param__@27|)))(let ((.def_521 (bvadd (_ bv4294967295 32) |sum::n@26|)))(let ((.def_523 (= .def_521 |sum::n__param__@27|)))(let ((.def_528 (and .def_523 .def_527)))(let ((.def_817 (and .def_528 .def_816)))(let ((.def_532 (= |sum::m__param__@27| |sum::m@27|)))(let ((.def_530 (= |sum::n__param__@27| |sum::n@27|)))(let ((.def_533 (and .def_530 .def_532)))(let ((.def_818 (and .def_533 .def_817)))(let ((.def_534 (bvslt |sum::n@27| (_ bv1 32))))(let ((.def_819 (and .def_534 .def_818)))(let ((.def_537 (bvadd |sum::n@27| |sum::m@27|)))(let ((.def_539 (= .def_537 |sum::iVar1@28|)))(let ((.def_820 (and .def_539 .def_819)))(let ((.def_541 (= |sum::__retval__@2| |sum::iVar1@28|)))(let ((.def_821 (and .def_541 .def_820)))(let ((.def_643 (= |sum::__retval__@2| |sum::iVar1@30|)))(let ((.def_822 (and .def_643 .def_821)))(let ((.def_644 (= |sum::__retval__@3| |sum::iVar1@30|)))(let ((.def_823 (and .def_644 .def_822)))(let ((.def_646 (= |sum::__retval__@3| |sum::iVar1@32|)))(let ((.def_824 (and .def_646 .def_823)))(let ((.def_647 (= |sum::__retval__@4| |sum::iVar1@32|)))(let ((.def_825 (and .def_647 .def_824)))(let ((.def_649 (= |sum::__retval__@4| |sum::iVar1@34|)))(let ((.def_826 (and .def_649 .def_825)))(let ((.def_650 (= |sum::__retval__@5| |sum::iVar1@34|)))(let ((.def_827 (and .def_650 .def_826)))(let ((.def_652 (= |sum::__retval__@5| |sum::iVar1@36|)))(let ((.def_828 (and .def_652 .def_827)))(let ((.def_653 (= |sum::__retval__@6| |sum::iVar1@36|)))(let ((.def_829 (and .def_653 .def_828)))(let ((.def_655 (= |sum::__retval__@6| |sum::iVar1@38|)))(let ((.def_830 (and .def_655 .def_829)))(let ((.def_656 (= |sum::__retval__@7| |sum::iVar1@38|)))(let ((.def_831 (and .def_656 .def_830)))(let ((.def_658 (= |sum::__retval__@7| |sum::iVar1@40|)))(let ((.def_832 (and .def_658 .def_831)))(let ((.def_659 (= |sum::__retval__@8| |sum::iVar1@40|)))(let ((.def_833 (and .def_659 .def_832)))(let ((.def_661 (= |sum::__retval__@8| |sum::iVar1@42|)))(let ((.def_834 (and .def_661 .def_833)))(let ((.def_662 (= |sum::__retval__@9| |sum::iVar1@42|)))(let ((.def_835 (and .def_662 .def_834)))(let ((.def_664 (= |sum::__retval__@9| |sum::iVar1@44|)))(let ((.def_836 (and .def_664 .def_835)))(let ((.def_665 (= |sum::__retval__@10| |sum::iVar1@44|)))(let ((.def_837 (and .def_665 .def_836)))(let ((.def_667 (= |sum::__retval__@10| |sum::iVar1@46|)))(let ((.def_838 (and .def_667 .def_837)))(let ((.def_668 (= |sum::__retval__@11| |sum::iVar1@46|)))(let ((.def_839 (and .def_668 .def_838)))(let ((.def_670 (= |sum::__retval__@11| |sum::iVar1@48|)))(let ((.def_840 (and .def_670 .def_839)))(let ((.def_671 (= |sum::__retval__@12| |sum::iVar1@48|)))(let ((.def_841 (and .def_671 .def_840)))(let ((.def_673 (= |sum::__retval__@12| |sum::iVar1@50|)))(let ((.def_842 (and .def_673 .def_841)))(let ((.def_674 (= |sum::__retval__@13| |sum::iVar1@50|)))(let ((.def_843 (and .def_674 .def_842)))(let ((.def_676 (= |sum::__retval__@13| |sum::iVar1@52|)))(let ((.def_844 (and .def_676 .def_843)))(let ((.def_677 (= |sum::__retval__@14| |sum::iVar1@52|)))(let ((.def_845 (and .def_677 .def_844)))(let ((.def_679 (= |sum::__retval__@14| |sum::iVar1@54|)))(let ((.def_846 (and .def_679 .def_845)))(let ((.def_680 (= |sum::__retval__@15| |sum::iVar1@54|)))(let ((.def_847 (and .def_680 .def_846)))(let ((.def_682 (= |sum::__retval__@15| |sum::iVar1@56|)))(let ((.def_848 (and .def_682 .def_847)))(let ((.def_683 (= |sum::__retval__@16| |sum::iVar1@56|)))(let ((.def_849 (and .def_683 .def_848)))(let ((.def_685 (= |sum::__retval__@16| |sum::iVar1@58|)))(let ((.def_850 (and .def_685 .def_849)))(let ((.def_686 (= |sum::__retval__@17| |sum::iVar1@58|)))(let ((.def_851 (and .def_686 .def_850)))(let ((.def_688 (= |sum::__retval__@17| |sum::iVar1@60|)))(let ((.def_852 (and .def_688 .def_851)))(let ((.def_689 (= |sum::__retval__@18| |sum::iVar1@60|)))(let ((.def_853 (and .def_689 .def_852)))(let ((.def_691 (= |sum::__retval__@18| |sum::iVar1@62|)))(let ((.def_854 (and .def_691 .def_853)))(let ((.def_692 (= |sum::__retval__@19| |sum::iVar1@62|)))(let ((.def_855 (and .def_692 .def_854)))(let ((.def_694 (= |sum::__retval__@19| |sum::iVar1@64|)))(let ((.def_856 (and .def_694 .def_855)))(let ((.def_695 (= |sum::__retval__@20| |sum::iVar1@64|)))(let ((.def_857 (and .def_695 .def_856)))(let ((.def_697 (= |sum::__retval__@20| |sum::iVar1@66|)))(let ((.def_858 (and .def_697 .def_857)))(let ((.def_698 (= |sum::__retval__@21| |sum::iVar1@66|)))(let ((.def_859 (and .def_698 .def_858)))(let ((.def_700 (= |sum::__retval__@21| |sum::iVar1@68|)))(let ((.def_860 (and .def_700 .def_859)))(let ((.def_701 (= |sum::__retval__@22| |sum::iVar1@68|)))(let ((.def_861 (and .def_701 .def_860)))(let ((.def_703 (= |sum::__retval__@22| |sum::iVar1@70|)))(let ((.def_862 (and .def_703 .def_861)))(let ((.def_704 (= |sum::__retval__@23| |sum::iVar1@70|)))(let ((.def_863 (and .def_704 .def_862)))(let ((.def_706 (= |sum::__retval__@23| |sum::iVar1@72|)))(let ((.def_864 (and .def_706 .def_863)))(let ((.def_707 (= |sum::__retval__@24| |sum::iVar1@72|)))(let ((.def_865 (and .def_707 .def_864)))(let ((.def_709 (= |sum::__retval__@24| |sum::iVar1@74|)))(let ((.def_866 (and .def_709 .def_865)))(let ((.def_710 (= |sum::__retval__@25| |sum::iVar1@74|)))(let ((.def_867 (and .def_710 .def_866)))(let ((.def_712 (= |sum::__retval__@25| |sum::iVar1@76|)))(let ((.def_868 (and .def_712 .def_867)))(let ((.def_713 (= |sum::__retval__@26| |sum::iVar1@76|)))(let ((.def_869 (and .def_713 .def_868)))(let ((.def_715 (= |sum::__retval__@26| |sum::iVar1@78|)))(let ((.def_870 (and .def_715 .def_869)))(let ((.def_716 (= |sum::__retval__@27| |sum::iVar1@78|)))(let ((.def_871 (and .def_716 .def_870)))(let ((.def_718 (= |sum::__retval__@27| |main::iVar1@29|)))(let ((.def_872 (and .def_718 .def_871)))(let ((.def_719 (= |main::iVar1@29| (_ bv25 32))))(let ((.def_873 (and .def_719 .def_872))).def_873))))))))))))))))))))))))))))))))))))))))))))))))))))))))))))))))))))))))))))))))))))))))))))))))))))))))))))))))))))))))))))))))))))))))))))))))))))))))))))))))))))))))))))))))))))))))))))))))))))))))))))))))))))))))))))))))))))))))))))))))))))))))))))))))))))))))))))))))))))))))))))))))))))))))))))))))))))))))))))))))))))))))))))))))))))))))))))))))))))))))))))))))))))))))))))))))))))))))))))))))))))))))))))))))))))))))))))))))))))))))))))